objective value:                                12102
t_x_0                                               1 	(obj:43)
t_x_1                                               1 	(obj:14)
t_x_2                                               1 	(obj:7)
t_x_4                                               1 	(obj:25)
t_x_7                                               1 	(obj:9)
t_x_12                                              1 	(obj:2)
t_x_15                                              1 	(obj:28)
t_x_16                                              1 	(obj:47)
t_x_17                                              1 	(obj:10)
t_x_19                                              1 	(obj:10)
t_x_23                                              1 	(obj:41)
t_x_25                                              1 	(obj:25)
t_x_26                                              1 	(obj:38)
t_x_27                                              1 	(obj:10)
t_x_31                                              1 	(obj:13)
t_x_32                                              1 	(obj:35)
t_x_35                                              1 	(obj:24)
t_x_38                                              1 	(obj:2)
t_x_42                                              1 	(obj:16)
t_x_43                                              1 	(obj:0)
t_x_46                                              1 	(obj:2)
t_x_50                                              1 	(obj:1)
t_x_52                                              1 	(obj:9)
t_x_55                                              1 	(obj:11)
t_x_56                                              1 	(obj:69)
t_x_57                                              1 	(obj:19)
t_x_58                                              1 	(obj:29)
t_x_61                                              1 	(obj:39)
t_x_62                                              1 	(obj:13)
t_x_63                                              1 	(obj:35)
t_x_65                                              1 	(obj:49)
t_x_66                                              1 	(obj:9)
t_x_67                                              1 	(obj:13)
t_x_70                                              1 	(obj:6)
t_x_72                                              1 	(obj:5)
t_x_75                                              1 	(obj:1)
t_x_76                                              1 	(obj:12)
t_x_77                                              1 	(obj:51)
t_x_78                                              1 	(obj:12)
t_x_81                                              1 	(obj:3)
t_x_83                                              1 	(obj:4)
t_x_84                                              1 	(obj:28)
t_x_86                                              1 	(obj:61)
t_x_89                                              1 	(obj:11)
t_x_90                                              1 	(obj:30)
t_x_92                                              1 	(obj:77)
t_x_102                                             1 	(obj:14)
t_x_103                                             1 	(obj:42)
t_x_109                                             1 	(obj:13)
t_x_110                                             1 	(obj:12)
t_x_116                                             1 	(obj:3)
t_x_117                                             1 	(obj:3)
t_x_118                                             1 	(obj:29)
t_x_127                                             1 	(obj:2)
t_x_132                                             1 	(obj:16)
t_x_137                                             1 	(obj:34)
t_x_139                                             1 	(obj:38)
t_x_143                                             1 	(obj:3)
t_x_158                                             1 	(obj:13)
t_x_159                                             1 	(obj:30)
t_x_165                                             1 	(obj:33)
t_x_166                                             1 	(obj:28)
t_x_167                                             1 	(obj:6)
t_x_173                                             1 	(obj:53)
t_x_174                                             1 	(obj:61)
t_x_180                                             1 	(obj:5)
t_x_187                                             1 	(obj:11)
t_x_188                                             1 	(obj:31)
t_x_197                                             1 	(obj:12)
t_x_203                                             1 	(obj:6)
t_x_204                                             1 	(obj:6)
t_x_206                                             1 	(obj:25)
t_x_209                                             1 	(obj:28)
t_x_211                                             1 	(obj:16)
t_x_216                                             1 	(obj:17)
t_x_218                                             1 	(obj:7)
t_x_220                                             1 	(obj:3)
t_x_222                                             1 	(obj:10)
t_x_224                                             1 	(obj:35)
t_x_226                                             1 	(obj:33)
t_x_235                                             1 	(obj:1)
t_x_238                                             1 	(obj:13)
t_x_241                                             1 	(obj:50)
t_x_242                                             1 	(obj:13)
t_x_243                                             1 	(obj:59)
t_x_249                                             1 	(obj:18)
t_x_257                                             1 	(obj:47)
t_x_261                                             1 	(obj:40)
t_x_262                                             1 	(obj:25)
t_x_263                                             1 	(obj:16)
t_x_265                                             1 	(obj:6)
t_x_267                                             1 	(obj:10)
t_x_268                                             1 	(obj:33)
t_x_269                                             1 	(obj:2)
t_x_275                                             1 	(obj:2)
t_x_279                                             1 	(obj:13)
t_x_281                                             1 	(obj:38)
t_x_282                                             1 	(obj:29)
t_x_283                                             1 	(obj:54)
t_x_285                                             1 	(obj:0)
t_x_286                                             1 	(obj:4)
t_x_291                                             1 	(obj:9)
t_x_300                                             1 	(obj:21)
t_x_304                                             1 	(obj:15)
t_x_309                                             1 	(obj:49)
t_x_311                                             1 	(obj:27)
t_x_316                                             1 	(obj:13)
t_x_317                                             1 	(obj:39)
t_x_320                                             1 	(obj:8)
t_x_325                                             1 	(obj:13)
t_x_328                                             1 	(obj:36)
t_x_329                                             1 	(obj:21)
t_x_332                                             1 	(obj:21)
t_x_341                                             1 	(obj:6)
t_x_342                                             1 	(obj:0)
t_x_347                                             1 	(obj:14)
t_x_351                                             1 	(obj:10)
t_x_354                                             1 	(obj:2)
t_x_356                                             1 	(obj:6)
t_x_358                                             1 	(obj:40)
t_x_359                                             1 	(obj:35)
t_x_364                                             1 	(obj:26)
t_x_365                                             1 	(obj:1)
t_x_372                                             1 	(obj:6)
t_x_375                                             1 	(obj:39)
t_x_387                                             1 	(obj:8)
t_x_390                                             1 	(obj:5)
t_x_391                                             1 	(obj:10)
t_x_394                                             1 	(obj:15)
t_x_395                                             1 	(obj:13)
t_x_398                                             1 	(obj:34)
t_x_401                                             1 	(obj:27)
t_x_405                                             1 	(obj:12)
t_x_410                                             1 	(obj:1)
t_x_413                                             1 	(obj:21)
t_x_414                                             1 	(obj:38)
t_x_418                                             1 	(obj:17)
t_x_421                                             1 	(obj:5)
t_x_425                                             1 	(obj:11)
t_x_431                                             1 	(obj:11)
t_x_435                                             1 	(obj:15)
t_x_441                                             1 	(obj:4)
t_x_445                                             1 	(obj:8)
t_x_447                                             1 	(obj:37)
t_x_448                                             1 	(obj:65)
t_x_451                                             1 	(obj:8)
t_x_452                                             1 	(obj:32)
t_x_453                                             1 	(obj:20)
t_x_455                                             1 	(obj:16)
t_x_457                                             1 	(obj:4)
t_x_458                                             1 	(obj:19)
t_x_461                                             1 	(obj:66)
t_x_462                                             1 	(obj:56)
t_x_464                                             1 	(obj:1)
t_x_465                                             1 	(obj:14)
t_x_466                                             1 	(obj:28)
t_x_467                                             1 	(obj:14)
t_x_475                                             1 	(obj:16)
t_x_483                                             1 	(obj:23)
t_x_488                                             1 	(obj:30)
t_x_489                                             1 	(obj:15)
t_x_490                                             1 	(obj:22)
t_x_492                                             1 	(obj:14)
t_x_495                                             1 	(obj:19)
t_x_501                                             1 	(obj:26)
t_x_502                                             1 	(obj:14)
t_x_504                                             1 	(obj:36)
t_x_507                                             1 	(obj:10)
t_x_509                                             1 	(obj:25)
t_x_510                                             1 	(obj:47)
t_x_513                                             1 	(obj:28)
t_x_514                                             1 	(obj:10)
t_x_515                                             1 	(obj:34)
t_x_518                                             1 	(obj:10)
t_x_520                                             1 	(obj:10)
t_x_521                                             1 	(obj:28)
t_x_528                                             1 	(obj:0)
t_x_530                                             1 	(obj:3)
t_x_532                                             1 	(obj:11)
t_x_534                                             1 	(obj:11)
t_x_535                                             1 	(obj:31)
t_x_539                                             1 	(obj:3)
t_x_541                                             1 	(obj:22)
t_x_547                                             1 	(obj:44)
t_x_554                                             1 	(obj:4)
t_x_556                                             1 	(obj:1)
t_x_560                                             1 	(obj:46)
t_x_563                                             1 	(obj:8)
t_x_568                                             1 	(obj:13)
t_x_569                                             1 	(obj:14)
t_x_572                                             1 	(obj:1)
t_x_573                                             1 	(obj:13)
t_x_575                                             1 	(obj:33)
t_x_577                                             1 	(obj:22)
t_x_584                                             1 	(obj:22)
t_x_586                                             1 	(obj:33)
t_x_587                                             1 	(obj:29)
t_x_594                                             1 	(obj:0)
t_x_597                                             1 	(obj:4)
t_x_608                                             1 	(obj:11)
t_x_609                                             1 	(obj:32)
t_x_614                                             1 	(obj:9)
t_x_615                                             1 	(obj:25)
t_x_616                                             1 	(obj:3)
t_x_617                                             1 	(obj:56)
t_x_618                                             1 	(obj:5)
t_x_620                                             1 	(obj:1)
t_x_621                                             1 	(obj:6)
t_x_625                                             1 	(obj:3)
t_x_627                                             1 	(obj:36)
t_x_633                                             1 	(obj:1)
t_x_635                                             1 	(obj:6)
t_x_636                                             1 	(obj:22)
t_x_637                                             1 	(obj:10)
t_x_638                                             1 	(obj:24)
t_x_642                                             1 	(obj:38)
t_x_649                                             1 	(obj:2)
t_x_650                                             1 	(obj:28)
t_x_654                                             1 	(obj:23)
t_x_655                                             1 	(obj:69)
t_x_664                                             1 	(obj:15)
t_x_666                                             1 	(obj:5)
t_x_674                                             1 	(obj:16)
t_x_675                                             1 	(obj:32)
t_x_678                                             1 	(obj:4)
t_x_689                                             1 	(obj:64)
t_x_692                                             1 	(obj:24)
t_x_704                                             1 	(obj:0)
t_x_709                                             1 	(obj:24)
t_x_713                                             1 	(obj:25)
t_x_721                                             1 	(obj:4)
t_x_722                                             1 	(obj:4)
t_x_723                                             1 	(obj:12)
t_x_725                                             1 	(obj:6)
t_x_727                                             1 	(obj:1)
t_x_728                                             1 	(obj:60)
t_x_729                                             1 	(obj:53)
t_x_731                                             1 	(obj:3)
t_x_733                                             1 	(obj:9)
t_x_734                                             1 	(obj:12)
t_x_737                                             1 	(obj:3)
t_x_740                                             1 	(obj:1)
t_x_744                                             1 	(obj:3)
t_x_752                                             1 	(obj:40)
t_x_753                                             1 	(obj:3)
t_x_756                                             1 	(obj:1)
t_x_758                                             1 	(obj:5)
t_x_760                                             1 	(obj:37)
t_x_765                                             1 	(obj:0)
t_x_767                                             1 	(obj:8)
t_x_769                                             1 	(obj:3)
t_x_771                                             1 	(obj:26)
t_x_773                                             1 	(obj:31)
t_x_777                                             1 	(obj:22)
t_x_787                                             1 	(obj:9)
t_x_794                                             1 	(obj:7)
t_x_795                                             1 	(obj:26)
t_x_797                                             1 	(obj:29)
t_x_799                                             1 	(obj:17)
t_x_803                                             1 	(obj:41)
t_x_807                                             1 	(obj:19)
t_x_810                                             1 	(obj:5)
t_x_814                                             1 	(obj:40)
t_x_815                                             1 	(obj:23)
t_x_817                                             1 	(obj:30)
t_x_819                                             1 	(obj:0)
t_x_820                                             1 	(obj:1)
t_x_821                                             1 	(obj:32)
t_x_828                                             1 	(obj:18)
t_x_829                                             1 	(obj:26)
t_x_830                                             1 	(obj:41)
t_x_831                                             1 	(obj:0)
t_x_832                                             1 	(obj:48)
t_x_835                                             1 	(obj:13)
t_x_836                                             1 	(obj:0)
t_x_839                                             1 	(obj:20)
t_x_842                                             1 	(obj:6)
t_x_844                                             1 	(obj:33)
t_x_848                                             1 	(obj:17)
t_x_849                                             1 	(obj:22)
t_x_853                                             1 	(obj:16)
t_x_855                                             1 	(obj:16)
t_x_860                                             1 	(obj:41)
t_x_863                                             1 	(obj:1)
t_x_869                                             1 	(obj:10)
t_x_873                                             1 	(obj:24)
t_x_876                                             1 	(obj:24)
t_x_880                                             1 	(obj:18)
t_x_885                                             1 	(obj:46)
t_x_886                                             1 	(obj:28)
t_x_891                                             1 	(obj:34)
t_x_892                                             1 	(obj:32)
t_x_895                                             1 	(obj:15)
t_x_900                                             1 	(obj:6)
t_x_903                                             1 	(obj:5)
t_x_904                                             1 	(obj:38)
t_x_906                                             1 	(obj:7)
t_x_909                                             1 	(obj:12)
t_x_911                                             1 	(obj:27)
t_x_912                                             1 	(obj:8)
t_x_913                                             1 	(obj:61)
t_x_914                                             1 	(obj:0)
t_x_917                                             1 	(obj:18)
t_x_921                                             1 	(obj:0)
t_x_924                                             1 	(obj:14)
t_x_937                                             1 	(obj:20)
t_x_939                                             1 	(obj:47)
t_x_940                                             1 	(obj:75)
t_x_943                                             1 	(obj:13)
t_x_944                                             1 	(obj:13)
t_x_945                                             1 	(obj:18)
t_x_947                                             1 	(obj:1)
t_x_949                                             1 	(obj:15)
t_x_958                                             1 	(obj:3)
t_x_963                                             1 	(obj:22)
t_x_966                                             1 	(obj:1)
t_x_969                                             1 	(obj:9)
t_x_971                                             1 	(obj:3)
t_x_973                                             1 	(obj:16)
t_x_987                                             1 	(obj:15)
t_x_993                                             1 	(obj:6)
t_x_995                                             1 	(obj:38)
t_x_996                                             1 	(obj:33)
t_x_1000                                            1 	(obj:18)
t_x_1002                                            1 	(obj:19)
t_x_1010                                            1 	(obj:16)
t_x_1011                                            1 	(obj:42)
t_x_1015                                            1 	(obj:23)
t_x_1016                                            1 	(obj:17)
t_x_1019                                            1 	(obj:33)
t_x_1022                                            1 	(obj:11)
t_x_1026                                            1 	(obj:1)
t_x_1031                                            1 	(obj:43)
t_x_1036                                            1 	(obj:34)
t_x_1037                                            1 	(obj:10)
t_x_1046                                            1 	(obj:33)
t_x_1059                                            1 	(obj:21)
t_x_1063                                            1 	(obj:16)
t_x_1064                                            1 	(obj:11)
t_x_1065                                            1 	(obj:7)
t_x_1066                                            1 	(obj:11)
t_x_1069                                            1 	(obj:10)
t_x_1071                                            1 	(obj:23)
t_x_1074                                            1 	(obj:62)
t_x_1075                                            1 	(obj:7)
t_x_1077                                            1 	(obj:16)
t_x_1081                                            1 	(obj:12)
t_x_1082                                            1 	(obj:7)
t_x_1083                                            1 	(obj:2)
t_x_1092                                            1 	(obj:19)
t_x_1094                                            1 	(obj:26)
t_x_1096                                            1 	(obj:34)
t_x_1098                                            1 	(obj:53)
t_x_1104                                            1 	(obj:37)
t_x_1119                                            1 	(obj:52)
t_x_1121                                            1 	(obj:8)
t_x_1122                                            1 	(obj:0)
t_x_1123                                            1 	(obj:44)
t_x_1130                                            1 	(obj:1)
t_x_1135                                            1 	(obj:31)
t_x_1137                                            1 	(obj:5)
t_x_1142                                            1 	(obj:17)
t_x_1146                                            1 	(obj:8)
t_x_1159                                            1 	(obj:10)
t_x_1160                                            1 	(obj:18)
t_x_1161                                            1 	(obj:10)
t_x_1175                                            1 	(obj:24)
t_x_1176                                            1 	(obj:51)
t_x_1178                                            1 	(obj:20)
t_x_1179                                            1 	(obj:13)
t_x_1187                                            1 	(obj:9)
t_x_1198                                            1 	(obj:42)
t_x_1201                                            1 	(obj:46)
t_x_1203                                            1 	(obj:35)
t_x_1204                                            1 	(obj:35)
t_x_1206                                            1 	(obj:1)
t_x_1209                                            1 	(obj:19)
t_x_1212                                            1 	(obj:7)
t_x_1219                                            1 	(obj:13)
t_x_1222                                            1 	(obj:5)
t_x_1226                                            1 	(obj:40)
t_x_1242                                            1 	(obj:8)
t_x_1243                                            1 	(obj:57)
t_x_1244                                            1 	(obj:29)
t_x_1245                                            1 	(obj:33)
t_x_1246                                            1 	(obj:10)
t_x_1249                                            1 	(obj:38)
t_x_1252                                            1 	(obj:32)
t_x_1253                                            1 	(obj:8)
t_x_1254                                            1 	(obj:7)
t_x_1257                                            1 	(obj:3)
t_x_1258                                            1 	(obj:24)
t_x_1260                                            1 	(obj:26)
t_x_1263                                            1 	(obj:15)
t_x_1264                                            1 	(obj:1)
t_x_1266                                            1 	(obj:80)
t_x_1268                                            1 	(obj:43)
t_x_1273                                            1 	(obj:16)
t_x_1274                                            1 	(obj:8)
t_x_1277                                            1 	(obj:17)
t_x_1281                                            1 	(obj:5)
t_x_1282                                            1 	(obj:18)
t_x_1287                                            1 	(obj:39)
t_x_1289                                            1 	(obj:26)
t_x_1294                                            1 	(obj:2)
t_x_1297                                            1 	(obj:15)
t_x_1299                                            1 	(obj:13)
t_x_1300                                            1 	(obj:8)
t_x_1301                                            1 	(obj:31)
t_x_1302                                            1 	(obj:28)
t_x_1305                                            1 	(obj:2)
t_x_1306                                            1 	(obj:27)
t_x_1308                                            1 	(obj:10)
t_x_1311                                            1 	(obj:37)
t_x_1312                                            1 	(obj:2)
t_x_1318                                            1 	(obj:12)
t_x_1320                                            1 	(obj:16)
t_x_1328                                            1 	(obj:10)
t_x_1337                                            1 	(obj:30)
t_x_1345                                            1 	(obj:3)
t_x_1346                                            1 	(obj:28)
t_x_1347                                            1 	(obj:22)
t_x_1348                                            1 	(obj:6)
t_x_1349                                            1 	(obj:11)
t_x_1358                                            1 	(obj:21)
t_x_1360                                            1 	(obj:26)
t_x_1361                                            1 	(obj:23)
t_x_1364                                            1 	(obj:19)
t_x_1366                                            1 	(obj:21)
t_x_1368                                            1 	(obj:18)
t_x_1371                                            1 	(obj:0)
t_x_1373                                            1 	(obj:13)
t_x_1380                                            1 	(obj:6)
t_x_1382                                            1 	(obj:14)
t_x_1385                                            1 	(obj:9)
t_x_1388                                            1 	(obj:53)
t_x_1389                                            1 	(obj:1)
t_x_1391                                            1 	(obj:12)
t_x_1397                                            1 	(obj:6)
t_x_1405                                            1 	(obj:26)
t_x_1406                                            1 	(obj:32)
t_x_1409                                            1 	(obj:22)
t_x_1412                                            1 	(obj:34)
t_x_1414                                            1 	(obj:6)
t_x_1417                                            1 	(obj:10)
t_x_1419                                            1 	(obj:33)
t_x_1420                                            1 	(obj:30)
t_x_1422                                            1 	(obj:4)
t_x_1428                                            1 	(obj:48)
t_x_1430                                            1 	(obj:1)
t_x_1433                                            1 	(obj:9)
t_x_1435                                            1 	(obj:35)
t_x_1442                                            1 	(obj:15)
t_x_1445                                            1 	(obj:7)
t_x_1447                                            1 	(obj:12)
t_x_1448                                            1 	(obj:25)
t_x_1450                                            1 	(obj:34)
t_x_1451                                            1 	(obj:13)
t_x_1453                                            1 	(obj:16)
t_x_1456                                            1 	(obj:12)
t_x_1462                                            1 	(obj:16)
t_x_1465                                            1 	(obj:57)
t_x_1467                                            1 	(obj:3)
t_x_1468                                            1 	(obj:15)
t_x_1470                                            1 	(obj:0)
t_x_1471                                            1 	(obj:12)
t_x_1473                                            1 	(obj:20)
t_x_1475                                            1 	(obj:6)
t_x_1477                                            1 	(obj:14)
t_x_1480                                            1 	(obj:30)
t_x_1486                                            1 	(obj:4)
t_x_1490                                            1 	(obj:11)
t_x_1493                                            1 	(obj:3)
t_x_1494                                            1 	(obj:50)
t_x_1499                                            1 	(obj:13)
t_x_1503                                            1 	(obj:9)
t_x_1504                                            1 	(obj:14)
t_x_1508                                            1 	(obj:16)
t_x_1511                                            1 	(obj:48)
t_x_1515                                            1 	(obj:14)
t_x_1516                                            1 	(obj:1)
t_x_1517                                            1 	(obj:11)
t_x_1519                                            1 	(obj:18)
t_x_1524                                            1 	(obj:14)
t_x_1525                                            1 	(obj:33)
t_x_1542                                            1 	(obj:27)
t_x_1545                                            1 	(obj:20)
t_x_1547                                            1 	(obj:5)
t_x_1548                                            1 	(obj:18)
t_x_1550                                            1 	(obj:20)
t_x_1553                                            1 	(obj:19)
t_x_1554                                            1 	(obj:44)
t_x_1556                                            1 	(obj:6)
t_x_1558                                            1 	(obj:37)
t_x_1561                                            1 	(obj:2)
t_x_1564                                            1 	(obj:10)
t_x_1570                                            1 	(obj:11)
t_x_1572                                            1 	(obj:14)
t_x_1574                                            1 	(obj:5)
t_x_1575                                            1 	(obj:45)
t_x_1577                                            1 	(obj:3)
t_x_1580                                            1 	(obj:0)
t_x_1583                                            1 	(obj:37)
t_x_1599                                            1 	(obj:7)
t_x_1601                                            1 	(obj:25)
t_x_1605                                            1 	(obj:30)
t_x_1606                                            1 	(obj:57)
t_x_1610                                            1 	(obj:20)
t_x_1613                                            1 	(obj:12)
t_x_1618                                            1 	(obj:21)
t_x_1621                                            1 	(obj:27)
t_x_1628                                            1 	(obj:17)
t_x_1631                                            1 	(obj:33)
t_x_1633                                            1 	(obj:34)
t_x_1642                                            1 	(obj:25)
t_x_1647                                            1 	(obj:15)
t_x_1649                                            1 	(obj:0)
t_x_1654                                            1 	(obj:25)
t_x_1655                                            1 	(obj:13)
t_x_1657                                            1 	(obj:24)
t_x_1658                                            1 	(obj:9)
t_x_1668                                            1 	(obj:36)
t_x_1674                                            1 	(obj:10)
t_x_1677                                            1 	(obj:22)
t_x_1681                                            1 	(obj:8)
t_x_1684                                            1 	(obj:3)
t_x_1690                                            1 	(obj:13)
t_x_1691                                            1 	(obj:2)
t_x_1697                                            1 	(obj:29)
t_x_1701                                            1 	(obj:7)
t_x_1702                                            1 	(obj:3)
t_x_1703                                            1 	(obj:2)
t_x_1705                                            1 	(obj:12)
t_x_1709                                            1 	(obj:38)
t_x_1711                                            1 	(obj:32)
t_x_1715                                            1 	(obj:1)
t_x_1716                                            1 	(obj:27)
t_x_1718                                            1 	(obj:18)
t_x_1719                                            1 	(obj:3)
t_x_1720                                            1 	(obj:30)
t_x_1723                                            1 	(obj:29)
t_x_1725                                            1 	(obj:23)
t_x_1734                                            1 	(obj:13)
t_x_1739                                            1 	(obj:10)
t_x_1740                                            1 	(obj:13)
t_x_1744                                            1 	(obj:10)
t_x_1750                                            1 	(obj:1)
t_x_1751                                            1 	(obj:1)
t_x_1761                                            1 	(obj:0)
t_x_1769                                            1 	(obj:6)
t_x_1775                                            1 	(obj:49)
t_x_1776                                            1 	(obj:20)
t_x_1777                                            1 	(obj:4)
t_x_1778                                            1 	(obj:6)
t_x_1782                                            1 	(obj:5)
t_x_1784                                            1 	(obj:77)
t_x_1790                                            1 	(obj:2)
t_x_1791                                            1 	(obj:23)
t_x_1804                                            1 	(obj:0)
t_x_1805                                            1 	(obj:38)
t_x_1806                                            1 	(obj:13)
t_x_1812                                            1 	(obj:12)
t_x_1815                                            1 	(obj:34)
t_x_1818                                            1 	(obj:57)
t_x_1819                                            1 	(obj:20)
t_x_1823                                            1 	(obj:13)
t_x_1827                                            1 	(obj:38)
t_x_1828                                            1 	(obj:35)
t_x_1833                                            1 	(obj:3)
t_x_1837                                            1 	(obj:14)
t_x_1838                                            1 	(obj:12)
t_x_1839                                            1 	(obj:1)
t_x_1842                                            1 	(obj:42)
t_x_1844                                            1 	(obj:10)
t_x_1847                                            1 	(obj:16)
t_x_1850                                            1 	(obj:11)
t_x_1851                                            1 	(obj:11)
t_x_1853                                            1 	(obj:22)
t_x_1855                                            1 	(obj:13)
t_x_1858                                            1 	(obj:21)
t_x_1860                                            1 	(obj:9)
t_x_1861                                            1 	(obj:22)
t_x_1864                                            1 	(obj:2)
t_x_1865                                            1 	(obj:11)
t_x_1870                                            1 	(obj:21)
t_x_1871                                            1 	(obj:27)
t_x_1874                                            1 	(obj:5)
t_x_1878                                            1 	(obj:21)
t_x_1881                                            1 	(obj:30)
t_x_1889                                            1 	(obj:10)
t_x_1890                                            1 	(obj:20)
t_x_1891                                            1 	(obj:21)
t_x_1892                                            1 	(obj:27)
t_x_1900                                            1 	(obj:23)
t_x_1904                                            1 	(obj:19)
t_x_1908                                            1 	(obj:12)
t_x_1910                                            1 	(obj:5)
t_x_1914                                            1 	(obj:7)
t_x_1919                                            1 	(obj:13)
t_x_1920                                            1 	(obj:29)
t_x_1922                                            1 	(obj:19)
t_x_1924                                            1 	(obj:3)
t_x_1926                                            1 	(obj:0)
t_x_1930                                            1 	(obj:32)
t_x_1932                                            1 	(obj:8)
t_x_1936                                            1 	(obj:15)
t_x_1937                                            1 	(obj:21)
t_x_1938                                            1 	(obj:15)
t_x_1946                                            1 	(obj:3)
t_x_1951                                            1 	(obj:14)
t_x_1968                                            1 	(obj:59)
t_x_1969                                            1 	(obj:29)
t_x_1971                                            1 	(obj:0)
t_x_1973                                            1 	(obj:56)
t_x_1975                                            1 	(obj:2)
t_x_1976                                            1 	(obj:48)
t_x_1982                                            1 	(obj:27)
t_x_1983                                            1 	(obj:12)
t_x_1984                                            1 	(obj:15)
t_x_1986                                            1 	(obj:32)
t_x_1988                                            1 	(obj:24)
t_x_1991                                            1 	(obj:5)
t_x_1994                                            1 	(obj:20)
t_x_1999                                            1 	(obj:12)
